W=8;
H=4;

MAX_TIME=W*H;
MAX_TRACKS=12;
SEMAPHORE_SUPPLY=1;

TARGET=(3,8);

TRAINS=[(1,1,RIGHT),(4,1,RIGHT),(3,1,RIGHT)];
DECOYS=[];

INIT_POS=[
(1,1,STRAIGHT_RL),
(1,4,STRAIGHT_RL),
(1,5,STRAIGHT_RL),
(1,6,STRAIGHT_RL),
(1,7,CORNER_DL),
(2,6,ROCK),
(2,7,STRAIGHT_TD),
(3,1,STRAIGHT_RL),
(3,3,STRAIGHT_RL),
(3,6,ROCK),
(3,7,CORNER_TR),
(3,8,STRAIGHT_RL),
(4,1,STRAIGHT_RL),
(4,6,ROCK),
];
TUNNEL_PAIRS=[];

GATES=[
(1,4,1,false),
];
ACTIVATIONS=[
(1,6,1),
(3,3,1),
];

DSWITCHES=[];
STATIONS=[
  (1,5,1),
];
